solution status: time limit reached
objective value:                                   18
C0032                                               1 	(obj:0)
C0035                                               1 	(obj:0)
C0052                                               1 	(obj:0)
C0071                                               1 	(obj:0)
C0088                                               1 	(obj:0)
C0104                                               1 	(obj:0)
C0129                                               1 	(obj:0)
C0140                                               1 	(obj:0)
C0150                                               1 	(obj:0)
C0172                                               1 	(obj:0)
C0174                                               1 	(obj:0)
C0193                                               1 	(obj:0)
C0205                                               1 	(obj:0)
C0212                                               1 	(obj:0)
C0213                                               1 	(obj:0)
C0234                                               1 	(obj:0)
C0249                                               1 	(obj:0)
C0256                                               1 	(obj:0)
C0277                                               1 	(obj:0)
C0287                                               1 	(obj:0)
C0299                                               1 	(obj:0)
C0306                                               1 	(obj:0)
C0313                                               1 	(obj:0)
C0333                                               1 	(obj:0)
C0346                                               1 	(obj:0)
C0351                                               1 	(obj:0)
C0372                                               1 	(obj:0)
C0379                                               1 	(obj:0)
C0426                                               1 	(obj:0)
C0428                                               1 	(obj:0)
C0430                                               1 	(obj:0)
C0443                                               1 	(obj:0)
C0450                                               1 	(obj:0)
C0460                                               1 	(obj:0)
C0481                                               1 	(obj:0)
C0513                                               1 	(obj:0)
C0527                                               1 	(obj:0)
C0535                                               1 	(obj:0)
C0537                                               1 	(obj:0)
C0544                                               1 	(obj:0)
C0551                                               1 	(obj:0)
C0566                                               1 	(obj:0)
C0601                                               1 	(obj:0)
C0621                                               1 	(obj:0)
C0630                                               1 	(obj:0)
C0651                                               1 	(obj:0)
C0665                                               1 	(obj:0)
C0680                                               1 	(obj:0)
C0686                                               1 	(obj:0)
C0691                                               1 	(obj:0)
C0699                                               1 	(obj:0)
C0720                                               1 	(obj:0)
C0741                                               1 	(obj:0)
C0749                                               1 	(obj:0)
C0751                                               1 	(obj:0)
C0798                                               1 	(obj:0)
C0811                                               1 	(obj:0)
C0819                                               1 	(obj:0)
C0828                                               1 	(obj:0)
C0833                                               1 	(obj:0)
C0854                                               1 	(obj:0)
C0861                                               1 	(obj:0)
C0874                                               1 	(obj:0)
C0879                                               1 	(obj:0)
C0889                                               1 	(obj:0)
C0911                                               1 	(obj:0)
C0923                                               1 	(obj:0)
C0930                                               1 	(obj:0)
C0940                                               1 	(obj:0)
C0961                                               1 	(obj:0)
C0994                                               1 	(obj:0)
C0996                                               1 	(obj:0)
C1015                                               1 	(obj:0)
C1020                                               1 	(obj:0)
C1025                                               1 	(obj:0)
C1039                                               1 	(obj:0)
C1042                                               1 	(obj:0)
C1082                                               1 	(obj:0)
C1095                                               1 	(obj:0)
C1109                                               1 	(obj:0)
C1113                                               1 	(obj:0)
C1120                                               1 	(obj:0)
C1136                                               1 	(obj:0)
C1145                                               1 	(obj:0)
C1162                                               1 	(obj:0)
C1167                                               1 	(obj:0)
C1175                                               1 	(obj:0)
C1202                                               1 	(obj:0)
C1236                                               1 	(obj:0)
C1245                                               1 	(obj:0)
C1256                                               1 	(obj:0)
C1261                                               1 	(obj:0)
C1268                                               1 	(obj:0)
C1288                                               1 	(obj:0)
C1290                                               1 	(obj:0)
C1333                                               1 	(obj:0)
C1342                                               1 	(obj:0)
C1343                                               1 	(obj:0)
C1370                                               1 	(obj:0)
C1383                                               1 	(obj:0)
C1385                                               1 	(obj:0)
C1405                                               1 	(obj:0)
C1412                                               1 	(obj:0)
C1416                                               1 	(obj:0)
C1426                                               1 	(obj:0)
C1462                                               1 	(obj:0)
C1477                                               1 	(obj:0)
C1494                                               1 	(obj:0)
C1513                                               1 	(obj:0)
C1536                                               1 	(obj:0)
C1540                                               1 	(obj:0)
C1547                                               1 	(obj:0)
C1554                                               1 	(obj:0)
C1576                                               1 	(obj:0)
C1580                                               1 	(obj:0)
C1605                                               1 	(obj:0)
C1619                                               1 	(obj:0)
C1640                                               1 	(obj:0)
C1641                                               1 	(obj:0)
C1648                                               1 	(obj:0)
C1661                                               1 	(obj:0)
C1664                                               1 	(obj:0)
C1709                                               1 	(obj:0)
C1726                                               1 	(obj:0)
C1735                                               1 	(obj:0)
C1765                                               1 	(obj:0)
C1776                                               1 	(obj:0)
C1779                                               1 	(obj:0)
C1800                                               1 	(obj:0)
C1826                                               1 	(obj:0)
C1828                                               1 	(obj:0)
C1838                                               1 	(obj:0)
C1843                                               1 	(obj:0)
C1846                                               1 	(obj:0)
C1859                                               1 	(obj:0)
C1899                                               1 	(obj:0)
C1903                                               1 	(obj:0)
C1925                                               1 	(obj:0)
C1950                                               1 	(obj:0)
C1952                                               1 	(obj:0)
C1953                                               1 	(obj:0)
C1980                                               1 	(obj:0)
C1985                                               1 	(obj:0)
C1994                                               1 	(obj:0)
C2007                                               1 	(obj:0)
C2040                                               1 	(obj:0)
C2054                                               1 	(obj:0)
C2067                                               1 	(obj:0)
C2076                                               1 	(obj:0)
C2081                                               1 	(obj:0)
C2086                                               1 	(obj:0)
C2114                                               1 	(obj:0)
C2138                                               1 	(obj:0)
C2151                                               1 	(obj:0)
C2165                                               1 	(obj:0)
C2187                                               1 	(obj:0)
C2189                                               1 	(obj:0)
C2215                                               1 	(obj:0)
C2222                                               1 	(obj:0)
C2227                                               1 	(obj:0)
C2244                                               1 	(obj:0)
C2254                                               1 	(obj:0)
C2290                                               1 	(obj:0)
C2297                                               1 	(obj:0)
C2299                                               1 	(obj:0)
C2314                                               1 	(obj:0)
C2319                                               1 	(obj:0)
C2335                                               1 	(obj:0)
C2352                                               1 	(obj:0)
C2374                                               1 	(obj:0)
C2402                                               1 	(obj:0)
C2405                                               1 	(obj:0)
C2414                                               1 	(obj:0)
C2419                                               1 	(obj:0)
C2430                                               1 	(obj:0)
C2440                                               1 	(obj:0)
C2461                                               1 	(obj:0)
C2468                                               1 	(obj:0)
C2481                                               1 	(obj:0)
C2483                                               1 	(obj:0)
C2517                                               1 	(obj:0)
C2520                                               1 	(obj:0)
C2534                                               1 	(obj:0)
C2586                                               1 	(obj:0)
C2587                                               1 	(obj:0)
C2595                                               1 	(obj:0)
C2620                                               1 	(obj:0)
C2641                                               1 	(obj:0)
C2646                                               1 	(obj:0)
C2663                                               1 	(obj:0)
C2684                                               1 	(obj:0)
C2692                                               1 	(obj:0)
C2698                                               1 	(obj:0)
C2708                                               1 	(obj:0)
C2712                                               1 	(obj:0)
C2725                                               1 	(obj:0)
C2727                                               1 	(obj:0)
C2735                                               1 	(obj:0)
C2740                                               1 	(obj:0)
C2753                                               1 	(obj:0)
C2761                                               1 	(obj:0)
C2763                                               1 	(obj:0)
C2772                                               1 	(obj:0)
C2780                                               1 	(obj:0)
C2786                                               1 	(obj:0)
C2793                                               1 	(obj:0)
C2802                                               1 	(obj:0)
C2806                                               1 	(obj:0)
C2813                                               1 	(obj:0)
C2821                                               1 	(obj:0)
C2826                                               1 	(obj:0)
C2831                                               1 	(obj:0)
C2835                                               1 	(obj:0)
C2842                                               1 	(obj:0)
C2852                                               1 	(obj:0)
C2857                                               1 	(obj:0)
C2875                                               1 	(obj:0)
C2880                                               1 	(obj:0)
C2884                                               1 	(obj:0)
C2891                                               1 	(obj:0)
C2900                                               1 	(obj:0)
C2901                                               1 	(obj:0)
C2911                                               1 	(obj:0)
C2913                                               1 	(obj:0)
C2920                                               1 	(obj:0)
C2930                                               1 	(obj:0)
C2933                                               1 	(obj:0)
C2946                                               1 	(obj:0)
C2949                                               1 	(obj:0)
C2958                                               1 	(obj:0)
C2963                                               1 	(obj:0)
C2971                                               1 	(obj:0)
C2978                                               1 	(obj:0)
C2986                                               1 	(obj:0)
C2993                                               1 	(obj:0)
C3002                                               1 	(obj:0)
C3007                                               1 	(obj:0)
C3015                                               1 	(obj:0)
C3024                                               1 	(obj:0)
C3028                                               1 	(obj:0)
C0002                                               1 	(obj:3)
C0003                                               1 	(obj:3)
C0004                                               1 	(obj:3)
C0005                                               1 	(obj:3)
C0006                                               1 	(obj:3)
C0008                                               1 	(obj:3)
